Minimize
  obj: x0 + x1 + x2 + x3 + x4 + x5 + x6 + x7 + x8 + x9 + x10 + x11

Subject To
  c0: x0 + x3 + x4 + x7 + x9 = 59
  c1: x0 + x4 + x6 + x8 + x10 = 64
  c2: x0 + x1 + x4 + x6 + x8 = 57
  c3: x0 + x1 + x2 + x4 + x7 + x8 + x9 + x10 = 80
  c4: x0 + x2 + x4 + x5 + x9 = 59
  c5: x1 + x4 + x5 + x6 + x9 + x10 + x11 = 68
  c6: x4 + x5 + x6 + x8 = 44
  c7: x0 + x2 + x5 + x6 + x7 + x8 + x9 + x11 = 74
  c8: x0 + x2 + x5 + x7 + x8 + x9 = 54
  c9: x0 + x1 + x4 + x6 + x9 = 54

Bounds
  x0 >= 0
  x1 >= 0
  x2 >= 0
  x3 >= 0
  x4 >= 0
  x5 >= 0
  x6 >= 0
  x7 >= 0
  x8 >= 0
  x9 >= 0
  x10 >= 0
  x11 >= 0

Generals
  x0 x1 x2 x3 x4 x5 x6 x7 x8 x9 x10 x11

End
